proyfinal/src/viki/013/experimentInOfficeAgust.take6.output/99b95a1e-689b-49e8-a9ca-cc9014557f14.als.out
Reading from standard input... Use '--help' for help.
============================[ Problem Statistics ]=============================
|                                                                             |
|  Number of variables:         87638                                         |
|  Number of clauses:          161767                                         |
|  Parse time:                   0.03 s                                       |
|                                                                             |
============================[ Search Statistics ]==============================
| Conflicts |          ORIGINAL         |          LEARNT          | Progress |
|           |    Vars  Clauses Literals |    Limit  Clauses Lit/Cl |          |
===============================================================================
|       100 |   61990   103748   259287 |    38040      100     52 | 29.266 % |
|       250 |   61990   103748   259287 |    41845      250     84 | 29.266 % |
|       475 |   61989   103704   259197 |    46029      473     83 | 29.267 % |
|       812 |   43451    50179   127981 |    50632      786     76 | 50.420 % |
|      1318 |   43444    50124   127839 |    55695     1184     60 | 50.428 % |
|      2077 |   43444    50124   127839 |    61265     1943     48 | 50.428 % |
|      3216 |   43444    50124   127839 |    67391     3082     43 | 50.428 % |
===============================================================================
restarts              : 21
conflicts             : 3944           (10679 /sec)
decisions             : 12412          (0.00 % random) (33608 /sec)
propagations          : 5163551        (13981163 /sec)
conflict literals     : 150105         (32.16 % deleted)
Memory used           : 21.56 MB
CPU time              : 0.369322 s

UNSATISFIABLE
